Cars = 1..200;
Options = 1..5;
Classes = 1..25;
sequenceMinCapacity = [0, 0, 0, 0, 0];
sequenceMaxCapacity = [1, 2, 1, 2, 1];
sequenceSize = [2, 3, 3, 5, 5];
numOrdered = [3, 1, 7, 8, 6, 1, 2, 1, 2, 5, 6, 14, 4, 3, 8, 41, 8, 1, 5, 3, 1, 20, 14, 27, 9];
classHasOption = [|false,  true, false, false,  true
                  | true,  true,  true,  true,  true
                  | true, false, false, false,  true
                  | true,  true, false,  true, false
                  |false,  true,  true, false, false
                  | true,  true,  true, false,  true
                  | true,  true,  true,  true, false
                  |false, false, false,  true,  true
                  |false, false,  true,  true,  true
                  | true,  true, false, false,  true
                  | true,  true, false, false, false
                  |false, false,  true, false, false
                  | true, false,  true, false, false
                  |false,  true, false,  true,  true
                  | true, false, false,  true, false
                  |false,  true, false, false, false
                  |false, false, false, false,  true
                  | true, false,  true, false,  true
                  | true,  true,  true, false, false
                  |false,  true,  true, false,  true
                  |false, false,  true, false, false
                  |false, false, false,  true, false
                  |false,  true, false,  true, false
                  | true, false, false, false, false
                  |false, false,  true,  true, false|];
optionOrdering = [5, 1, 3, 4, 2];
